DIMENSION: 120
33
100
58
79
91
68
43
65
69
113
118
49
13
23
9
51
11
115
2
93
21
109
88
64
97
12
95
77
53
5
63
39
83
67
106
104
35
10
99
62
37
57
73
114
27
80
82
3
101
102
110
112
89
36
84
6
55
90
96
54
71
47
48
26
8
70
116
34
4
119
103
38
7
56
41
42
17
98
50
44
87
14
74
45
28
120
105
72
40
60
24
111
16
61
1
76
29
32
30
59
15
92
78
94
81
86
75
46
20
107
108
19
18
22
85
66
31
117
25
52
